6 6 84
4 5 1 5 2 1 1 5 3 26 36 36 50 50 60 60 75 
2 2 1 2 2 58 68 68 84 
5 3 1 3 2 6 1 6 2 1 2 10 22 22 42 42 53 53 67 67 84 
4 4 1 4 2 4 3 6 3 14 25 25 38 38 50 73 84 
7 4 1 6 1 6 1 2 1 2 1 6 3 6 3 0 14 14 28 28 38 38 50 50 58 59 67 67 73 
6 3 1 5 1 5 1 1 1 1 1 1 2 0 10 10 22 22 26 26 44 44 48 60 66 
